N = 16;
M = 18;
Edge_Start = [1, 1, 2, 3, 3, 4, 5, 7, 7, 8, 9, 9, 10, 11, 12, 13, 14, 15];
Edge_End = [2, 6, 3, 4, 8, 5, 10, 8, 12, 9, 10, 14, 11, 16, 13, 14, 15, 16];
L = [14, 16, 11, 8, 18, 4, 16, 16, 7, 19, 12, 19, 15, 16, 16, 3, 17, 2];
T = [22, 21, 10, 6, 24, 5, 12, 8, 1, 16, 6, 22, 13, 8, 14, 2, 13, 1];
Lower_Bound = [0, 22, 32, 38, 43, 21, 64, 56, 61, 55, 68, 65, 79, 81, 77, 76];
Upper_Bound = [1, 23, 33, 39, 44, 22, 65, 57, 62, 56, 69, 66, 80, 82, 78, 77];
Start = 1;
End = 16;
Time = 78;
